PRODUCT = {AXE, SWORD, PIKE, SPEAR, CLUB};
profit =  [11.0, 18.0, 15.0, 17.0, 11.0];
RESOURCE = {IRON, WOOD, SMITH, CARPENTER};
capacity = [5000, 7500, 4000, 3000];
consumption = [| 1.5, 1.0, 1.0, 1.0 
               | 2.0, 0.0, 2.0, 0.0
               | 1.5, 0.5, 1.0, 1.0 
               | 0.5, 1.0, 0.9, 1.5
               | 0.1, 2.5, 0.1, 2.5 |];
/*

PRODUCT = {F, L, Z, J};
profit = [6.0, 10.0, 8.0, 40.0];
RESOURCE = {MONEY};
capacity = [10000.0];
consumption = [| 13.0 | 21.0 | 17.0 | 100.0 |];

*/